\ENCODING=ISO-8859-1
\Problem name: ilog.cplex

Maximize
 obj: 673 x(0)#0 + 721 x(1)#1 + 533 x(2)#2 + 646 x(3)#3 + 667 x(4)#4
      + 561 x(5)#5 + 975 x(6)#6 + 616 x(7)#7 + 877 x(8)#8 + 834 x(9)#9
      + 1016 x(10)#10 + 528 x(11)#11 + 799 x(12)#12 + 885 x(13)#13
      + 785 x(14)#14 + 753 x(15)#15 + 656 x(16)#16 + 600 x(17)#17
      + 633 x(18)#18 + 696 x(19)#19 + 629 x(20)#20 + 575 x(21)#21
      + 764 x(22)#22 + 891 x(23)#23 + 896 x(24)#24 + 540 x(25)#25
      + 666 x(26)#26 + 652 x(27)#27 + 1091 x(28)#28 + 609 x(29)#29
      + 827 x(30)#30 + 779 x(31)#31 + 916 x(32)#32 + 687 x(33)#33
      + 919 x(34)#34 + 881 x(35)#35 + 994 x(36)#36 + 735 x(37)#37
      + 555 x(38)#38 + 610 x(39)#39 + 677 x(40)#40 + 806 x(41)#41
      + 663 x(42)#42 + 694 x(43)#43 + 547 x(44)#44 + 967 x(45)#45
      + 810 x(46)#46 + 515 x(47)#47 + 896 x(48)#48 + 730 x(49)#49
      + 573 x(50)#50 + 618 x(51)#51 + 567 x(52)#52 + 928 x(53)#53
      + 996 x(54)#54 + 822 x(55)#55 + 607 x(56)#56 + 669 x(57)#57
      + 471 x(58)#58 + 444 x(59)#59 + 835 x(60)#60 + 987 x(61)#61
      + 544 x(62)#62 + 720 x(63)#63 + 827 x(64)#64 + 852 x(65)#65
      + 939 x(66)#66 + 797 x(67)#67 + 569 x(68)#68 + 456 x(69)#69
      + 819 x(70)#70 + 464 x(71)#71 + 716 x(72)#72 + 949 x(73)#73
      + 995 x(74)#74 + 697 x(75)#75 + 632 x(76)#76 + 992 x(77)#77
      + 445 x(78)#78 + 878 x(79)#79 + 664 x(80)#80 + 727 x(81)#81
      + 566 x(82)#82 + 476 x(83)#83 + 743 x(84)#84 + 764 x(85)#85
      + 863 x(86)#86 + 652 x(87)#87 + 817 x(88)#88 + 1003 x(89)#89
      + 1141 x(90)#90 + 1023 x(91)#91 + 899 x(92)#92 + 690 x(93)#93
      + 744 x(94)#94 + 780 x(95)#95 + 820 x(96)#96 + 964 x(97)#97
      + 392 x(98)#98 + 608 x(99)#99
Subject To
 c1:  292 x(0)#0 + 316 x(1)#1 + 38 x(2)#2 + 624 x(3)#3 + 886 x(4)#4
      + 509 x(5)#5 + 547 x(6)#6 + 30 x(7)#7 + 59 x(8)#8 + 516 x(9)#9
      + 853 x(10)#10 + 527 x(11)#11 + 868 x(12)#12 + 417 x(13)#13
      + 435 x(14)#14 + 277 x(15)#15 + 764 x(16)#16 + 418 x(17)#17
      + 124 x(18)#18 + 356 x(19)#19 + 809 x(20)#20 + 763 x(21)#21
      + 674 x(22)#22 + 722 x(23)#23 + 155 x(24)#24 + 932 x(25)#25
      + 397 x(26)#26 + 84 x(27)#27 + 982 x(28)#28 + 832 x(29)#29 + 520 x(30)#30
      + 405 x(31)#31 + 847 x(32)#32 + 486 x(33)#33 + 590 x(34)#34 + 78 x(35)#35
      + 952 x(36)#36 + 650 x(37)#37 + 42 x(38)#38 + 235 x(39)#39 + 99 x(40)#40
      + 106 x(41)#41 + 824 x(42)#42 + 699 x(43)#43 + 809 x(44)#44
      + 856 x(45)#45 + 703 x(46)#46 + 461 x(47)#47 + 256 x(48)#48
      + 770 x(49)#49 + 156 x(50)#50 + 291 x(51)#51 + 366 x(52)#52
      + 634 x(53)#53 + 701 x(54)#54 + 760 x(55)#55 + 24 x(56)#56 + 910 x(57)#57
      + 818 x(58)#58 + 656 x(59)#59 + 969 x(60)#60 + 543 x(61)#61
      + 820 x(62)#62 + 444 x(63)#63 + 187 x(64)#64 + 274 x(65)#65
      + 458 x(66)#66 + 386 x(67)#67 + 734 x(68)#68 + 489 x(69)#69
      + 648 x(70)#70 + 199 x(71)#71 + 67 x(72)#72 + 767 x(73)#73 + 654 x(74)#74
      + 4 x(75)#75 + 472 x(76)#76 + 517 x(77)#77 + 865 x(78)#78 + 865 x(79)#79
      + 138 x(80)#80 + 815 x(81)#81 + 564 x(82)#82 + 12 x(83)#83 + 963 x(84)#84
      + 742 x(85)#85 + 108 x(86)#86 + 911 x(87)#87 + 129 x(88)#88
      + 555 x(89)#89 + 950 x(90)#90 + 845 x(91)#91 + 618 x(92)#92
      + 872 x(93)#93 + 370 x(94)#94 + 258 x(95)#95 + 56 x(96)#96 + 775 x(97)#97
      + 332 x(98)#98 + 582 x(99)#99 <= 25934
 c2:  936 x(0)#0 + 647 x(1)#1 + 61 x(2)#2 + 240 x(3)#3 + 690 x(4)#4
      + 675 x(5)#5 + 190 x(6)#6 + 850 x(7)#7 + 905 x(8)#8 + 545 x(9)#9
      + 296 x(10)#10 + 784 x(11)#11 + 768 x(12)#12 + 618 x(13)#13
      + 861 x(14)#14 + 576 x(15)#15 + 33 x(16)#16 + 485 x(17)#17 + 759 x(18)#18
      + 24 x(19)#19 + 36 x(20)#20 + 860 x(21)#21 + 545 x(22)#22 + 626 x(23)#23
      + 625 x(24)#24 + 52 x(25)#25 + 25 x(26)#26 + 361 x(27)#27 + 198 x(28)#28
      + 718 x(29)#29 + 314 x(30)#30 + 744 x(31)#31 + 719 x(32)#32 + 71 x(33)#33
      + 243 x(34)#34 + 503 x(35)#35 + 73 x(36)#36 + 406 x(37)#37 + 625 x(38)#38
      + 621 x(39)#39 + 612 x(40)#40 + 331 x(41)#41 + 101 x(42)#42
      + 644 x(43)#43 + 348 x(44)#44 + 106 x(45)#45 + 438 x(46)#46
      + 247 x(47)#47 + 230 x(48)#48 + 818 x(49)#49 + 709 x(50)#50
      + 612 x(51)#51 + 851 x(52)#52 + 217 x(53)#53 + 770 x(54)#54 + 25 x(55)#55
      + 302 x(56)#56 + 402 x(57)#57 + 370 x(58)#58 + 87 x(59)#59 + 965 x(60)#60
      + 766 x(61)#61 + 853 x(62)#62 + 858 x(63)#63 + 466 x(64)#64
      + 950 x(65)#65 + 648 x(66)#66 + 28 x(67)#67 + 86 x(68)#68 + 401 x(69)#69
      + 799 x(70)#70 + 445 x(71)#71 + 250 x(72)#72 + 819 x(73)#73
      + 880 x(74)#74 + 459 x(75)#75 + 149 x(76)#76 + 912 x(77)#77
      + 568 x(78)#78 + 800 x(79)#79 + 900 x(80)#80 + 939 x(81)#81
      + 279 x(82)#82 + 473 x(83)#83 + 981 x(84)#84 + 952 x(85)#85
      + 138 x(86)#86 + 504 x(87)#87 + 186 x(88)#88 + 27 x(89)#89 + 788 x(90)#90
      + 134 x(91)#91 + 14 x(92)#92 + 751 x(93)#93 + 44 x(94)#94 + 954 x(95)#95
      + 713 x(96)#96 + 334 x(97)#97 + 229 x(98)#98 + 448 x(99)#99 <= 24709
 c3:  211 x(0)#0 + 340 x(1)#1 + 199 x(2)#2 + 121 x(3)#3 + 2 x(4)#4 + 506 x(5)#5
      + 265 x(6)#6 + 607 x(7)#7 + 211 x(8)#8 + 531 x(9)#9 + 171 x(10)#10
      + 221 x(11)#11 + 538 x(12)#12 + 672 x(13)#13 + 588 x(14)#14 + 72 x(15)#15
      + 210 x(16)#16 + 28 x(17)#17 + 809 x(18)#18 + 504 x(19)#19 + 36 x(20)#20
      + 510 x(21)#21 + 392 x(22)#22 + 556 x(23)#23 + 608 x(24)#24
      + 138 x(25)#25 + 96 x(26)#26 + 737 x(27)#27 + 988 x(28)#28 + 215 x(29)#29
      + 201 x(30)#30 + 753 x(31)#31 + 463 x(32)#32 + 766 x(33)#33
      + 891 x(34)#34 + 731 x(35)#35 + 668 x(36)#36 + 903 x(37)#37
      + 615 x(38)#38 + 54 x(39)#39 + 951 x(40)#40 + 699 x(41)#41 + 279 x(42)#42
      + 469 x(43)#43 + 401 x(44)#44 + 554 x(45)#45 + 950 x(46)#46
      + 393 x(47)#47 + 323 x(48)#48 + 570 x(49)#49 + 591 x(50)#50
      + 977 x(51)#51 + 532 x(52)#52 + 60 x(53)#53 + 326 x(54)#54 + 235 x(55)#55
      + 547 x(56)#56 + 326 x(57)#57 + 169 x(58)#58 + 424 x(59)#59
      + 203 x(60)#60 + 976 x(61)#61 + 45 x(62)#62 + 992 x(63)#63 + 466 x(64)#64
      + 391 x(65)#65 + 656 x(66)#66 + 562 x(67)#67 + 808 x(68)#68 + 75 x(69)#69
      + 91 x(70)#70 + 897 x(71)#71 + 87 x(72)#72 + 481 x(73)#73 + 571 x(74)#74
      + 480 x(75)#75 + 895 x(76)#76 + 440 x(77)#77 + 11 x(78)#78 + 84 x(79)#79
      + 246 x(80)#80 + 180 x(81)#81 + 635 x(82)#82 + 780 x(83)#83
      + 274 x(84)#84 + 364 x(85)#85 + 230 x(86)#86 + 177 x(87)#87
      + 935 x(88)#88 + 884 x(89)#89 + 695 x(90)#90 + 901 x(91)#91
      + 799 x(92)#92 + 713 x(93)#93 + 505 x(94)#94 + 877 x(95)#95
      + 148 x(96)#96 + 864 x(97)#97 + 89 x(98)#98 + 878 x(99)#99 <= 23644
 c4:  366 x(0)#0 + 869 x(1)#1 + 812 x(2)#2 + 520 x(3)#3 + 413 x(4)#4
      + 181 x(5)#5 + 608 x(6)#6 + 165 x(7)#7 + 886 x(8)#8 + 738 x(9)#9
      + 611 x(10)#10 + 385 x(11)#11 + 909 x(12)#12 + 18 x(13)#13 + 46 x(14)#14
      + 583 x(15)#15 + 855 x(16)#16 + 430 x(17)#17 + 239 x(18)#18
      + 751 x(19)#19 + 252 x(20)#20 + 315 x(21)#21 + 593 x(22)#22
      + 873 x(23)#23 + 62 x(24)#24 + 843 x(25)#25 + 821 x(26)#26 + 176 x(27)#27
      + 741 x(28)#28 + 232 x(29)#29 + 196 x(30)#30 + 918 x(31)#31
      + 511 x(32)#32 + 686 x(33)#33 + 699 x(34)#34 + 740 x(35)#35
      + 256 x(36)#36 + 966 x(37)#37 + 597 x(38)#38 + 182 x(39)#39
      + 692 x(40)#40 + 105 x(41)#41 + 392 x(42)#42 + 128 x(43)#43
      + 615 x(44)#44 + 251 x(45)#45 + 503 x(46)#46 + 963 x(47)#47
      + 785 x(48)#48 + 515 x(49)#49 + 522 x(50)#50 + 381 x(51)#51
      + 979 x(52)#52 + 220 x(53)#53 + 592 x(54)#54 + 948 x(55)#55
      + 578 x(56)#56 + 565 x(57)#57 + 496 x(58)#58 + 16 x(59)#59 + 318 x(60)#60
      + 944 x(61)#61 + 98 x(62)#62 + 900 x(63)#63 + 633 x(64)#64 + 941 x(65)#65
      + 168 x(66)#66 + 659 x(67)#67 + 320 x(68)#68 + 172 x(69)#69 + 91 x(70)#70
      + 625 x(71)#71 + 555 x(72)#72 + 285 x(73)#73 + 952 x(74)#74
      + 505 x(75)#75 + 972 x(76)#76 + 679 x(77)#77 + 799 x(78)#78
      + 776 x(79)#79 + 34 x(80)#80 + 730 x(81)#81 + 743 x(82)#82 + 387 x(83)#83
      + 739 x(84)#84 + 670 x(85)#85 + 371 x(86)#86 + 478 x(87)#87
      + 546 x(88)#88 + 864 x(89)#89 + 299 x(90)#90 + 655 x(91)#91 + 22 x(92)#92
      + 151 x(93)#93 + 98 x(94)#94 + 14 x(95)#95 + 278 x(96)#96 + 370 x(97)#97
      + 363 x(98)#98 + 278 x(99)#99 <= 25386
 c5:  845 x(0)#0 + 840 x(1)#1 + 58 x(2)#2 + 872 x(3)#3 + 706 x(4)#4
      + 269 x(5)#5 + 459 x(6)#6 + 531 x(7)#7 + 125 x(8)#8 + 735 x(9)#9
      + 446 x(10)#10 + 550 x(11)#11 + 257 x(12)#12 + 668 x(13)#13
      + 830 x(14)#14 + 681 x(15)#15 + 923 x(16)#16 + 137 x(17)#17
      + 420 x(18)#18 + 791 x(19)#19 + 391 x(20)#20 + 275 x(21)#21
      + 725 x(22)#22 + 172 x(23)#23 + 301 x(24)#24 + 638 x(25)#25
      + 310 x(26)#26 + 198 x(27)#27 + 445 x(28)#28 + 726 x(29)#29
      + 227 x(30)#30 + 421 x(31)#31 + 912 x(32)#32 + 641 x(33)#33
      + 578 x(34)#34 + 969 x(35)#35 + 762 x(36)#36 + 369 x(37)#37 + 43 x(38)#38
      + 120 x(39)#39 + 824 x(40)#40 + 554 x(41)#41 + 996 x(42)#42
      + 861 x(43)#43 + 30 x(44)#44 + 240 x(45)#45 + 438 x(46)#46 + 767 x(47)#47
      + 998 x(48)#48 + 262 x(49)#49 + 641 x(50)#50 + 727 x(51)#51
      + 991 x(52)#52 + 886 x(53)#53 + 303 x(54)#54 + 7 x(55)#55 + 675 x(56)#56
      + 356 x(57)#57 + 795 x(58)#58 + 594 x(59)#59 + 590 x(60)#60
      + 545 x(61)#61 + 433 x(62)#62 + 39 x(63)#63 + 136 x(64)#64 + 648 x(65)#65
      + 146 x(66)#66 + 710 x(67)#67 + 97 x(68)#68 + 914 x(69)#69 + 862 x(70)#70
      + 7 x(71)#71 + 895 x(72)#72 + 673 x(73)#73 + 184 x(74)#74 + 420 x(75)#75
      + 689 x(76)#76 + 143 x(77)#77 + 23 x(78)#78 + 509 x(79)#79 + 33 x(80)#80
      + 316 x(81)#81 + 354 x(82)#82 + 29 x(83)#83 + 148 x(84)#84 + 266 x(85)#85
      + 825 x(86)#86 + 191 x(87)#87 + 272 x(88)#88 + 425 x(89)#89
      + 964 x(90)#90 + 323 x(91)#91 + 626 x(92)#92 + 913 x(93)#93
      + 916 x(94)#94 + 374 x(95)#95 + 740 x(96)#96 + 868 x(97)#97
      + 603 x(98)#98 + 397 x(99)#99 <= 25279
 c6:  473 x(0)#0 + 783 x(1)#1 + 341 x(2)#2 + 519 x(3)#3 + 465 x(4)#4
      + 563 x(5)#5 + 627 x(6)#6 + 757 x(7)#7 + 955 x(8)#8 + 320 x(9)#9
      + 771 x(10)#10 + 363 x(11)#11 + 637 x(12)#12 + 44 x(13)#13 + 225 x(14)#14
      + 259 x(15)#15 + 652 x(16)#16 + 839 x(17)#17 + 347 x(18)#18
      + 886 x(19)#19 + 221 x(20)#20 + 134 x(21)#21 + 103 x(22)#22
      + 481 x(23)#23 + 847 x(24)#24 + 473 x(25)#25 + 646 x(26)#26 + 97 x(27)#27
      + 255 x(28)#28 + 245 x(29)#29 + 669 x(30)#30 + 7 x(31)#31 + 873 x(32)#32
      + 408 x(33)#33 + 631 x(34)#34 + 114 x(35)#35 + 966 x(36)#36
      + 561 x(37)#37 + 820 x(38)#38 + 303 x(39)#39 + 771 x(40)#40
      + 339 x(41)#41 + 128 x(42)#42 + 376 x(43)#43 + 259 x(44)#44
      + 821 x(45)#45 + 28 x(46)#46 + 112 x(47)#47 + 681 x(48)#48 + 275 x(49)#49
      + 884 x(50)#50 + 306 x(51)#51 + 792 x(52)#52 + 171 x(53)#53
      + 917 x(54)#54 + 141 x(55)#55 + 79 x(56)#56 + 878 x(57)#57 + 317 x(58)#58
      + 704 x(59)#59 + 278 x(60)#60 + 820 x(61)#61 + 15 x(62)#62 + 28 x(63)#63
      + 737 x(64)#64 + 470 x(65)#65 + 917 x(66)#66 + 838 x(67)#67
      + 207 x(68)#68 + 706 x(69)#69 + 605 x(70)#70 + 770 x(71)#71
      + 536 x(72)#72 + 481 x(73)#73 + 575 x(74)#74 + 494 x(75)#75
      + 650 x(76)#76 + 656 x(77)#77 + 491 x(78)#78 + 331 x(79)#79
      + 403 x(80)#80 + 569 x(81)#81 + 253 x(82)#82 + 333 x(83)#83
      + 259 x(84)#84 + 158 x(85)#85 + 686 x(86)#86 + 885 x(87)#87
      + 297 x(88)#88 + 571 x(89)#89 + 889 x(90)#90 + 746 x(91)#91
      + 482 x(92)#92 + 640 x(93)#93 + 587 x(94)#94 + 156 x(95)#95
      + 193 x(96)#96 + 969 x(97)#97 + 879 x(98)#98 + 333 x(99)#99 <= 24776
 c7:  762 x(0)#0 + 206 x(1)#1 + 540 x(2)#2 + 77 x(3)#3 + 805 x(4)#4
      + 346 x(5)#5 + 319 x(6)#6 + 948 x(7)#7 + 402 x(8)#8 + 260 x(9)#9
      + 920 x(10)#10 + 334 x(11)#11 + 904 x(12)#12 + 958 x(13)#13
      + 534 x(14)#14 + 901 x(15)#15 + 805 x(16)#16 + 122 x(17)#17
      + 641 x(18)#18 + 202 x(19)#19 + 933 x(20)#20 + 309 x(21)#21
      + 588 x(22)#22 + 209 x(23)#23 + 844 x(24)#24 + 314 x(25)#25
      + 582 x(26)#26 + 831 x(27)#27 + 58 x(28)#28 + 688 x(29)#29 + 229 x(30)#30
      + 597 x(31)#31 + 49 x(32)#32 + 902 x(33)#33 + 457 x(34)#34 + 354 x(35)#35
      + 119 x(36)#36 + 316 x(37)#37 + 602 x(38)#38 + 401 x(39)#39
      + 643 x(40)#40 + 282 x(41)#41 + 497 x(42)#42 + 583 x(43)#43
      + 730 x(44)#44 + 4 x(45)#45 + 534 x(46)#46 + 307 x(47)#47 + 79 x(48)#48
      + 484 x(49)#49 + 359 x(50)#50 + 396 x(51)#51 + 340 x(52)#52
      + 870 x(53)#53 + 668 x(54)#54 + 364 x(55)#55 + 947 x(56)#56
      + 458 x(57)#57 + 707 x(58)#58 + 469 x(59)#59 + 834 x(60)#60
      + 195 x(61)#61 + 638 x(62)#62 + 223 x(63)#63 + 555 x(64)#64
      + 338 x(65)#65 + 678 x(66)#66 + 471 x(67)#67 + 175 x(68)#68
      + 330 x(69)#69 + 621 x(70)#70 + 271 x(71)#71 + 110 x(72)#72
      + 465 x(73)#73 + 591 x(74)#74 + 680 x(75)#75 + 879 x(76)#76
      + 819 x(77)#77 + 326 x(78)#78 + 207 x(79)#79 + 103 x(80)#80
      + 374 x(81)#81 + 528 x(82)#82 + 907 x(83)#83 + 92 x(84)#84 + 814 x(85)#85
      + 577 x(86)#86 + 842 x(87)#87 + 911 x(88)#88 + 550 x(89)#89
      + 920 x(90)#90 + 926 x(91)#91 + 251 x(92)#92 + 379 x(93)#93
      + 579 x(94)#94 + 931 x(95)#95 + 72 x(96)#96 + 921 x(97)#97 + 329 x(98)#98
      + 45 x(99)#99 <= 25273
 c8:  430 x(0)#0 + 105 x(1)#1 + 147 x(2)#2 + 172 x(3)#3 + 841 x(4)#4
      + 793 x(5)#5 + 913 x(6)#6 + 271 x(7)#7 + 505 x(8)#8 + 762 x(9)#9
      + 14 x(10)#10 + 82 x(11)#11 + 511 x(12)#12 + 552 x(13)#13 + 19 x(14)#14
      + 222 x(15)#15 + 455 x(16)#16 + 19 x(17)#17 + 565 x(18)#18 + 172 x(19)#19
      + 928 x(20)#20 + 240 x(21)#21 + 990 x(22)#22 + 338 x(23)#23
      + 188 x(24)#24 + 607 x(25)#25 + 19 x(26)#26 + 497 x(27)#27
      + 1000 x(28)#28 + 531 x(29)#29 + 955 x(30)#30 + 133 x(31)#31
      + 955 x(32)#32 + 379 x(33)#33 + 674 x(34)#34 + 242 x(35)#35
      + 950 x(36)#36 + 347 x(37)#37 + 56 x(38)#38 + 445 x(39)#39 + 519 x(40)#40
      + 746 x(41)#41 + 198 x(42)#42 + 306 x(43)#43 + 166 x(44)#44
      + 945 x(45)#45 + 49 x(46)#46 + 271 x(47)#47 + 148 x(48)#48 + 616 x(49)#49
      + 678 x(50)#50 + 171 x(51)#51 + 30 x(52)#52 + 576 x(53)#53 + 564 x(54)#54
      + 281 x(55)#55 + 518 x(56)#56 + 336 x(57)#57 + 192 x(58)#58
      + 361 x(59)#59 + 507 x(60)#60 + 912 x(61)#61 + 211 x(62)#62
      + 533 x(63)#63 + 814 x(64)#64 + 208 x(65)#65 + 963 x(66)#66
      + 279 x(67)#67 + 620 x(68)#68 + 142 x(69)#69 + 260 x(70)#70 + 35 x(71)#71
      + 986 x(72)#72 + x(73)#73 + 205 x(74)#74 + 80 x(75)#75 + 76 x(76)#76
      + 649 x(77)#77 + 250 x(78)#78 + 957 x(79)#79 + 43 x(80)#80 + 51 x(81)#81
      + 621 x(82)#82 + 317 x(83)#83 + 554 x(84)#84 + 77 x(85)#85 + 707 x(86)#86
      + 74 x(87)#87 + 31 x(88)#88 + 37 x(89)#89 + 56 x(90)#90 + 251 x(91)#91
      + 370 x(92)#92 + 746 x(93)#93 + 938 x(94)#94 + 790 x(95)#95
      + 527 x(96)#96 + 663 x(97)#97 + 270 x(98)#98 + 140 x(99)#99 <= 20823
 c9:  339 x(0)#0 + 667 x(1)#1 + 877 x(2)#2 + 847 x(3)#3 + 656 x(4)#4
      + 10 x(5)#5 + 932 x(6)#6 + 732 x(7)#7 + 785 x(8)#8 + 929 x(9)#9
      + 830 x(10)#10 + 928 x(11)#11 + 772 x(12)#12 + 788 x(13)#13
      + 969 x(14)#14 + 147 x(15)#15 + 907 x(16)#16 + 359 x(17)#17
      + 363 x(18)#18 + 15 x(19)#19 + 977 x(20)#20 + 735 x(21)#21 + 371 x(22)#22
      + 23 x(23)#23 + 436 x(24)#24 + 878 x(25)#25 + 784 x(26)#26 + 888 x(27)#27
      + 766 x(28)#28 + 368 x(29)#29 + 114 x(30)#30 + 577 x(31)#31
      + 435 x(32)#32 + 969 x(33)#33 + 442 x(34)#34 + 898 x(35)#35
      + 507 x(36)#36 + 571 x(37)#37 + 698 x(38)#38 + 878 x(39)#39
      + 909 x(40)#40 + 216 x(41)#41 + 948 x(42)#42 + 807 x(43)#43
      + 120 x(44)#44 + 611 x(45)#45 + 955 x(46)#46 + 557 x(47)#47
      + 337 x(48)#48 + 743 x(49)#49 + 588 x(50)#50 + 607 x(51)#51
      + 522 x(52)#52 + 469 x(53)#53 + 395 x(54)#54 + 661 x(55)#55 + 89 x(56)#56
      + 558 x(57)#57 + 348 x(58)#58 + 555 x(59)#59 + 428 x(60)#60
      + 732 x(61)#61 + 48 x(62)#62 + 398 x(63)#63 + 77 x(64)#64 + 337 x(65)#65
      + 300 x(66)#66 + 180 x(67)#67 + 202 x(68)#68 + 500 x(69)#69
      + 928 x(70)#70 + 797 x(71)#71 + 137 x(72)#72 + 343 x(73)#73
      + 109 x(74)#74 + 196 x(75)#75 + 558 x(76)#76 + 553 x(77)#77
      + 379 x(78)#78 + 803 x(79)#79 + 396 x(80)#80 + 949 x(81)#81 + 85 x(82)#82
      + 329 x(83)#83 + 60 x(84)#84 + 599 x(85)#85 + 342 x(86)#86 + 205 x(87)#87
      + 321 x(88)#88 + 970 x(89)#89 + 808 x(90)#90 + 263 x(91)#91
      + 632 x(92)#92 + 714 x(93)#93 + 584 x(94)#94 + 771 x(95)#95
      + 432 x(96)#96 + 458 x(97)#97 + 747 x(98)#98 + 965 x(99)#99 <= 27399
 c10: 93 x(0)#0 + 165 x(1)#1 + 238 x(2)#2 + 363 x(3)#3 + 996 x(4)#4
      + 309 x(5)#5 + 696 x(6)#6 + 133 x(7)#7 + 549 x(8)#8 + 734 x(9)#9
      + 769 x(10)#10 + 501 x(11)#11 + 940 x(12)#12 + 631 x(13)#13
      + 439 x(14)#14 + 943 x(15)#15 + 903 x(16)#16 + 270 x(17)#17
      + 764 x(18)#18 + 823 x(19)#19 + 428 x(20)#20 + 696 x(21)#21
      + 753 x(22)#22 + 692 x(23)#23 + 114 x(24)#24 + 291 x(25)#25 + 33 x(26)#26
      + 760 x(27)#27 + 580 x(28)#28 + 188 x(29)#29 + 422 x(30)#30
      + 429 x(31)#31 + 220 x(32)#32 + 487 x(33)#33 + 508 x(34)#34
      + 271 x(35)#35 + 550 x(36)#36 + 515 x(37)#37 + 742 x(38)#38
      + 940 x(39)#39 + 711 x(40)#40 + 521 x(41)#41 + 220 x(42)#42
      + 859 x(43)#43 + 434 x(44)#44 + 311 x(45)#45 + 114 x(46)#46
      + 111 x(47)#47 + 353 x(48)#48 + 873 x(49)#49 + 175 x(50)#50
      + 275 x(51)#51 + 11 x(52)#52 + 491 x(53)#53 + 658 x(54)#54 + 730 x(55)#55
      + 370 x(56)#56 + 990 x(57)#57 + 204 x(58)#58 + 485 x(59)#59
      + 833 x(60)#60 + 248 x(61)#61 + 614 x(62)#62 + 260 x(63)#63 + 80 x(64)#64
      + 866 x(65)#65 + 649 x(66)#66 + 113 x(67)#67 + 471 x(68)#68
      + 832 x(69)#69 + 391 x(70)#70 + 375 x(71)#71 + 348 x(72)#72
      + 834 x(73)#73 + 485 x(74)#74 + 677 x(75)#75 + 108 x(76)#76
      + 213 x(77)#77 + 453 x(78)#78 + 10 x(79)#79 + 867 x(80)#80 + 657 x(81)#81
      + 581 x(82)#82 + 448 x(83)#83 + 45 x(84)#84 + 736 x(85)#85 + 873 x(86)#86
      + 545 x(87)#87 + 584 x(88)#88 + 892 x(89)#89 + 401 x(90)#90
      + 426 x(91)#91 + 879 x(92)#92 + 829 x(93)#93 + 722 x(94)#94
      + 890 x(95)#95 + 623 x(96)#96 + 325 x(97)#97 + 70 x(98)#98 + 768 x(99)#99
      <= 25398
Bounds
 0 <= x(0)#0 <= 1
 0 <= x(1)#1 <= 1
 0 <= x(2)#2 <= 1
 0 <= x(3)#3 <= 1
 0 <= x(4)#4 <= 1
 0 <= x(5)#5 <= 1
 0 <= x(6)#6 <= 1
 0 <= x(7)#7 <= 1
 0 <= x(8)#8 <= 1
 0 <= x(9)#9 <= 1
 0 <= x(10)#10 <= 1
 0 <= x(11)#11 <= 1
 0 <= x(12)#12 <= 1
 0 <= x(13)#13 <= 1
 0 <= x(14)#14 <= 1
 0 <= x(15)#15 <= 1
 0 <= x(16)#16 <= 1
 0 <= x(17)#17 <= 1
 0 <= x(18)#18 <= 1
 0 <= x(19)#19 <= 1
 0 <= x(20)#20 <= 1
 0 <= x(21)#21 <= 1
 0 <= x(22)#22 <= 1
 0 <= x(23)#23 <= 1
 0 <= x(24)#24 <= 1
 0 <= x(25)#25 <= 1
 0 <= x(26)#26 <= 1
 0 <= x(27)#27 <= 1
 0 <= x(28)#28 <= 1
 0 <= x(29)#29 <= 1
 0 <= x(30)#30 <= 1
 0 <= x(31)#31 <= 1
 0 <= x(32)#32 <= 1
 0 <= x(33)#33 <= 1
 0 <= x(34)#34 <= 1
 0 <= x(35)#35 <= 1
 0 <= x(36)#36 <= 1
 0 <= x(37)#37 <= 1
 0 <= x(38)#38 <= 1
 0 <= x(39)#39 <= 1
 0 <= x(40)#40 <= 1
 0 <= x(41)#41 <= 1
 0 <= x(42)#42 <= 1
 0 <= x(43)#43 <= 1
 0 <= x(44)#44 <= 1
 0 <= x(45)#45 <= 1
 0 <= x(46)#46 <= 1
 0 <= x(47)#47 <= 1
 0 <= x(48)#48 <= 1
 0 <= x(49)#49 <= 1
 0 <= x(50)#50 <= 1
 0 <= x(51)#51 <= 1
 0 <= x(52)#52 <= 1
 0 <= x(53)#53 <= 1
 0 <= x(54)#54 <= 1
 0 <= x(55)#55 <= 1
 0 <= x(56)#56 <= 1
 0 <= x(57)#57 <= 1
 0 <= x(58)#58 <= 1
 0 <= x(59)#59 <= 1
 0 <= x(60)#60 <= 1
 0 <= x(61)#61 <= 1
 0 <= x(62)#62 <= 1
 0 <= x(63)#63 <= 1
 0 <= x(64)#64 <= 1
 0 <= x(65)#65 <= 1
 0 <= x(66)#66 <= 1
 0 <= x(67)#67 <= 1
 0 <= x(68)#68 <= 1
 0 <= x(69)#69 <= 1
 0 <= x(70)#70 <= 1
 0 <= x(71)#71 <= 1
 0 <= x(72)#72 <= 1
 0 <= x(73)#73 <= 1
 0 <= x(74)#74 <= 1
 0 <= x(75)#75 <= 1
 0 <= x(76)#76 <= 1
 0 <= x(77)#77 <= 1
 0 <= x(78)#78 <= 1
 0 <= x(79)#79 <= 1
 0 <= x(80)#80 <= 1
 0 <= x(81)#81 <= 1
 0 <= x(82)#82 <= 1
 0 <= x(83)#83 <= 1
 0 <= x(84)#84 <= 1
 0 <= x(85)#85 <= 1
 0 <= x(86)#86 <= 1
 0 <= x(87)#87 <= 1
 0 <= x(88)#88 <= 1
 0 <= x(89)#89 <= 1
 0 <= x(90)#90 <= 1
 0 <= x(91)#91 <= 1
 0 <= x(92)#92 <= 1
 0 <= x(93)#93 <= 1
 0 <= x(94)#94 <= 1
 0 <= x(95)#95 <= 1
 0 <= x(96)#96 <= 1
 0 <= x(97)#97 <= 1
 0 <= x(98)#98 <= 1
 0 <= x(99)#99 <= 1
Generals
 x(0)#0  x(1)#1  x(2)#2  x(3)#3  x(4)#4  x(5)#5  x(6)#6  x(7)#7  x(8)#8 
 x(9)#9  x(10)#10  x(11)#11  x(12)#12  x(13)#13  x(14)#14  x(15)#15  x(16)#16 
 x(17)#17  x(18)#18  x(19)#19  x(20)#20  x(21)#21  x(22)#22  x(23)#23 
 x(24)#24  x(25)#25  x(26)#26  x(27)#27  x(28)#28  x(29)#29  x(30)#30 
 x(31)#31  x(32)#32  x(33)#33  x(34)#34  x(35)#35  x(36)#36  x(37)#37 
 x(38)#38  x(39)#39  x(40)#40  x(41)#41  x(42)#42  x(43)#43  x(44)#44 
 x(45)#45  x(46)#46  x(47)#47  x(48)#48  x(49)#49  x(50)#50  x(51)#51 
 x(52)#52  x(53)#53  x(54)#54  x(55)#55  x(56)#56  x(57)#57  x(58)#58 
 x(59)#59  x(60)#60  x(61)#61  x(62)#62  x(63)#63  x(64)#64  x(65)#65 
 x(66)#66  x(67)#67  x(68)#68  x(69)#69  x(70)#70  x(71)#71  x(72)#72 
 x(73)#73  x(74)#74  x(75)#75  x(76)#76  x(77)#77  x(78)#78  x(79)#79 
 x(80)#80  x(81)#81  x(82)#82  x(83)#83  x(84)#84  x(85)#85  x(86)#86 
 x(87)#87  x(88)#88  x(89)#89  x(90)#90  x(91)#91  x(92)#92  x(93)#93 
 x(94)#94  x(95)#95  x(96)#96  x(97)#97  x(98)#98  x(99)#99 
End
